9
0 35 31 23 82 65 46 81 21 
82 0 21 1 45 50 48 7 45 
86 66 0 85 58 65 21 58 61 
25 16 74 0 43 10 60 73 41 
98 1 77 47 0 42 87 95 11 
83 8 4 14 81 0 47 92 27 
92 14 84 55 56 40 0 5 47 
62 18 84 4 67 35 27 0 4 
69 1 79 57 24 55 48 99 0 
